%%%%%%%%%%%%%%%%%%%%%%%%%%%%%%%%%%%%%%%%%%%%%%%%%%%%%%%%%%%%%%%%%%%%%%%%%
%FILE DATA:	Soccer Computational Problem for MiniZinc Models
%AUTHORS:	Robinson Duque, Alejandro Arbelaez, Juan Francisco Díaz
%CONTACT:  	robinson.duque@correounivalle.edu.co 
%LAST UPDATE:	May, 2018 
%ROUND ROBIN:2
%TEAMS:20
%PRESENT FIXTURE:29
%FIXTURES TO PLAY:9
%GAMES TO PLAY:90
%%%%%%%%%%%%%%%%%%%%%%%%%%%%%%%%%%%%%%%%%%%%%%%%%%%%%%%%%%%%%%%%%%%%%%%%%
%Number of teams:
n=20;

%For the purpose of our models, we offer two representations of the games to play, namely fixtures and games to play:

%Fixtures to play:
%fixtures=[|0,1,0,0,1,0,1,1,0,1,0,0,1,0,0,1,0,1,1,0
%|1,0,1,1,0,0,0,1,1,0,0,0,0,0,0,1,0,1,1,1
%|0,1,0,1,0,1,1,0,1,1,0,0,0,0,0,0,0,1,1,1
%|0,1,1,0,1,0,1,1,1,1,0,0,0,0,0,1,0,1,0,0
%|1,0,0,1,0,1,0,0,0,1,0,1,0,0,1,0,1,0,1,1
%|0,0,1,0,1,0,1,0,0,1,1,1,1,1,1,0,0,0,0,0
%|1,0,1,1,0,1,0,1,0,1,1,0,0,1,0,0,1,0,0,0
%|1,1,0,1,0,0,1,0,0,0,1,1,0,0,1,1,0,0,0,1
%|0,1,1,1,0,0,0,0,0,0,1,0,0,1,1,1,0,1,0,1
%|1,0,1,1,1,1,1,0,0,0,1,0,0,0,0,1,1,0,0,0
%|0,0,0,0,0,1,1,1,1,1,0,1,1,1,1,0,0,0,0,0
%|0,0,0,0,1,1,0,1,0,0,1,0,1,1,0,0,1,1,1,0
%|1,0,0,0,0,1,0,0,0,0,1,1,0,1,1,0,1,1,1,0
%|0,0,0,0,0,1,1,0,1,0,1,1,1,0,1,0,0,1,0,1
%|0,0,0,0,1,1,0,1,1,0,1,0,1,1,0,0,1,0,0,1
%|1,1,0,1,0,0,0,1,1,1,0,0,0,0,0,0,1,0,1,1
%|0,0,0,0,1,0,1,0,0,1,0,1,1,0,1,1,0,0,1,1
%|1,1,1,1,0,0,0,0,1,0,0,1,1,1,0,0,0,0,1,0
%|1,1,1,0,1,0,0,0,0,0,0,1,1,0,0,1,1,1,0,0
%|0,1,1,0,1,0,0,1,1,0,0,0,0,1,1,1,1,0,0,0|];

%Played Fixtures:
%PlayedFixtures=[|0,1,2,2,1,2,1,1,2,1,2,2,1,2,2,1,2,1,1,2
%|1,0,1,1,2,2,2,1,1,2,2,2,2,2,2,1,2,1,1,1
%|2,1,0,1,2,1,1,2,1,1,2,2,2,2,2,2,2,1,1,1
%|2,1,1,0,1,2,1,1,1,1,2,2,2,2,2,1,2,1,2,2
%|1,2,2,1,0,1,2,2,2,1,2,1,2,2,1,2,1,2,1,1
%|2,2,1,2,1,0,1,2,2,1,1,1,1,1,1,2,2,2,2,2
%|1,2,1,1,2,1,0,1,2,1,1,2,2,1,2,2,1,2,2,2
%|1,1,2,1,2,2,1,0,2,2,1,1,2,2,1,1,2,2,2,1
%|2,1,1,1,2,2,2,2,0,2,1,2,2,1,1,1,2,1,2,1
%|1,2,1,1,1,1,1,2,2,0,1,2,2,2,2,1,1,2,2,2
%|2,2,2,2,2,1,1,1,1,1,0,1,1,1,1,2,2,2,2,2
%|2,2,2,2,1,1,2,1,2,2,1,0,1,1,2,2,1,1,1,2
%|1,2,2,2,2,1,2,2,2,2,1,1,0,1,1,2,1,1,1,2
%|2,2,2,2,2,1,1,2,1,2,1,1,1,0,1,2,2,1,2,1
%|2,2,2,2,1,1,2,1,1,2,1,2,1,1,0,2,1,2,2,1
%|1,1,2,1,2,2,2,1,1,1,2,2,2,2,2,0,1,2,1,1
%|2,2,2,2,1,2,1,2,2,1,2,1,1,2,1,1,0,2,1,1
%|1,1,1,1,2,2,2,2,1,2,2,1,1,1,2,2,2,0,1,2
%|1,1,1,2,1,2,2,2,2,2,2,1,1,2,2,1,1,1,0,2
%|2,1,1,2,1,2,2,1,1,2,2,2,2,1,1,1,1,2,2,0|];

%Games to play:
games=[|2,1|3,2|4,2|4,3|5,1|5,4|6,3|6,5|7,1|7,3|7,4|7,6|8,1|8,2|8,4|8,7|9,2|9,3|9,4|10,1|10,3|10,4|10,5|10,6|10,7|11,6|11,7|11,8|11,9|11,10|12,5|12,6|12,8|12,11|13,1|13,6|13,11|13,12|14,6|14,7|14,9|14,11|14,12|14,13|15,5|15,6|15,8|15,9|15,11|15,13|15,14|16,1|16,2|16,4|16,8|16,9|16,10|17,5|17,7|17,10|17,12|17,13|17,15|17,16|18,1|18,2|18,3|18,4|18,9|18,12|18,13|18,14|19,1|19,2|19,3|19,5|19,12|19,13|19,16|19,17|19,18|20,2|20,3|20,5|20,8|20,9|20,14|20,15|20,16|20,17|];

%Played Games:
%PlayedGames=[|2,1|3,1|3,1|3,2|4,1|4,1|4,2|4,3|5,1|5,2|5,2|5,3|5,3|5,4|6,1|6,1|6,2|6,2|6,3|6,4|6,4|6,5|7,1|7,2|7,2|7,3|7,4|7,5|7,5|7,6|8,1|8,2|8,3|8,3|8,4|8,5|8,5|8,6|8,6|8,7|9,1|9,1|9,2|9,3|9,4|9,5|9,5|9,6|9,6|9,7|9,7|9,8|9,8|10,1|10,2|10,2|10,3|10,4|10,5|10,6|10,7|10,8|10,8|10,9|10,9|11,1|11,1|11,2|11,2|11,3|11,3|11,4|11,4|11,5|11,5|11,6|11,7|11,8|11,9|11,10|12,1|12,1|12,2|12,2|12,3|12,3|12,4|12,4|12,5|12,6|12,7|12,7|12,8|12,9|12,9|12,10|12,10|12,11|13,1|13,2|13,2|13,3|13,3|13,4|13,4|13,5|13,5|13,6|13,7|13,7|13,8|13,8|13,9|13,9|13,10|13,10|13,11|13,12|14,1|14,1|14,2|14,2|14,3|14,3|14,4|14,4|14,5|14,5|14,6|14,7|14,8|14,8|14,9|14,10|14,10|14,11|14,12|14,13|15,1|15,1|15,2|15,2|15,3|15,3|15,4|15,4|15,5|15,6|15,7|15,7|15,8|15,9|15,10|15,10|15,11|15,12|15,12|15,13|15,14|16,1|16,2|16,3|16,3|16,4|16,5|16,5|16,6|16,6|16,7|16,7|16,8|16,9|16,10|16,11|16,11|16,12|16,12|16,13|16,13|16,14|16,14|16,15|16,15|17,1|17,1|17,2|17,2|17,3|17,3|17,4|17,4|17,5|17,6|17,6|17,7|17,8|17,8|17,9|17,9|17,10|17,11|17,11|17,12|17,13|17,14|17,14|17,15|17,16|18,1|18,2|18,3|18,4|18,5|18,5|18,6|18,6|18,7|18,7|18,8|18,8|18,9|18,10|18,10|18,11|18,11|18,12|18,13|18,14|18,15|18,15|18,16|18,16|18,17|18,17|19,1|19,2|19,3|19,4|19,4|19,5|19,6|19,6|19,7|19,7|19,8|19,8|19,9|19,9|19,10|19,10|19,11|19,11|19,12|19,13|19,14|19,14|19,15|19,15|19,16|19,17|19,18|20,1|20,1|20,2|20,3|20,4|20,4|20,5|20,6|20,6|20,7|20,7|20,8|20,9|20,10|20,10|20,11|20,11|20,12|20,12|20,13|20,13|20,14|20,15|20,16|20,17|20,18|20,18|20,19|20,19|];

%Played Games - Win Results:
%% 0  0  0  0  1  1  1  1  0  0  2  0  0  1  0  1  0  0  0  0
%% 0  0  1  0  0  2  1  0  0  1  0  0  0  2  1  0  0  1  0  0
%% 0  0  0  0  0  1  0  0  1  0  2  1  0  0  2  0  0  0  0  0
%% 0  0  0  0  0  0  1  0  1  0  1  2  0  0  0  0  1  1  0  0
%% 0  0  0  0  0  0  0  0  0  0  0  0  0  0  0  0  0  0  0  0
%% 0  0  0  0  1  0  0  0  0  0  0  0  0  0  0  0  0  0  0  0
%% 0  0  0  0  0  0  0  0  0  0  0  0  0  0  0  0  0  0  0  0
%% 0  0  0  0  0  0  0  0  0  0  0  0  0  0  0  0  0  0  0  0
%% 0  0  0  0  0  0  0  0  0  0  0  0  0  0  0  0  0  0  0  0
%% 0  0  0  0  0  0  1  0  0  0  0  0  0  1  2  0  0  0  0  0
%% 0  0  0  0  0  0  1  0  0  0  0  0  0  1  0  0  0  0  0  0
%% 0  0  0  0  1  0  0  0  0  0  1  0  1  1  2  0  1  0  0  0
%% 0  0  0  0  0  0  0  0  0  0  0  0  0  0  0  0  0  0  0  0
%% 0  0  0  0  0  0  0  0  1  0  0  0  0  0  0  0  0  0  0  0
%% 0  0  0  0  0  1  0  0  0  0  1  0  1  0  0  0  0  0  0  0
%% 0  0  0  0  0  1  0  0  1  0  1  1  0  0  1  0  0  0  0  0
%% 0  0  0  0  0  0  0  0  0  0  0  0  0  0  0  0  0  0  0  0
%% 1  0  1  0  0  0  0  0  0  0  1  0  1  1  1  0  0  0  0  0
%% 1  1  1  1  1  0  0  0  1  0  0  1  1  0  2  1  1  1  0  2
%% 0  0  1  0  0  1  0  1  0  1  0  0  0  1  1  0  1  2  0  0
%Played Games - Tie Results:
%% 0  1  2  2  0  1  0  0  2  1  0  2  1  1  2  0  2  0  0  2
%% 1  0  0  1  2  0  1  1  1  1  2  2  2  0  1  1  2  0  0  1
%% 2  0  0  1  2  0  1  2  0  1  0  1  2  2  0  2  2  0  0  0
%% 2  1  1  0  1  2  0  1  0  1  1  0  2  2  2  1  1  0  1  2
%% 0  2  2  1  0  0  2  2  2  1  2  0  2  2  1  2  1  2  0  1
%% 1  0  0  2  0  0  1  2  2  1  1  1  1  1  0  1  2  2  2  1
%% 0  1  1  0  2  1  0  1  2  0  0  2  2  1  2  2  1  2  2  2
%% 0  1  2  1  2  2  1  0  2  2  1  1  2  2  1  1  2  2  2  0
%% 2  1  0  0  2  2  2  2  0  2  1  2  2  0  1  0  2  1  1  1
%% 1  1  1  1  1  1  0  2  2  0  1  2  2  1  0  1  1  2  2  1
%% 0  2  0  1  2  1  0  1  1  1  0  0  1  0  0  1  2  1  2  2
%% 2  2  1  0  0  1  2  1  2  2  0  0  0  0  0  1  0  1  0  2
%% 1  2  2  2  2  1  2  2  2  2  1  0  0  1  0  2  1  0  0  2
%% 1  0  2  2  2  1  1  2  0  1  0  0  1  0  1  2  2  0  2  0
%% 2  1  0  2  1  0  2  1  1  0  0  0  0  1  0  1  1  1  0  0
%% 0  1  2  1  2  1  2  1  0  1  1  1  2  2  1  0  1  2  0  1
%% 2  2  2  1  1  2  1  2  2  1  2  0  1  2  1  1  0  2  0  0
%% 0  0  0  0  2  2  2  2  1  2  1  1  0  0  1  2  2  0  0  0
%% 0  0  0  1  0  2  2  2  1  2  2  0  0  2  0  0  0  0  0  0
%% 2  1  0  2  1  1  2  0  1  1  2  2  2  0  0  1  0  0  0  0
%Played Games - Lose Results:
%% 0  0  0  0  0  0  0  0  0  0  0  0  0  0  0  0  0  1  1  0
%% 0  0  0  0  0  0  0  0  0  0  0  0  0  0  0  0  0  0  1  0
%% 0  1  0  0  0  0  0  0  0  0  0  0  0  0  0  0  0  1  1  1
%% 0  0  0  0  0  0  0  0  0  0  0  0  0  0  0  0  0  0  1  0
%% 1  0  0  0  0  1  0  0  0  0  0  1  0  0  0  0  0  0  1  0
%% 1  2  1  0  0  0  0  0  0  0  0  0  0  0  1  1  0  0  0  1
%% 1  1  0  1  0  0  0  0  0  1  1  0  0  0  0  0  0  0  0  0
%% 1  0  0  0  0  0  0  0  0  0  0  0  0  0  0  0  0  0  0  1
%% 0  0  1  1  0  0  0  0  0  0  0  0  0  1  0  1  0  0  1  0
%% 0  1  0  0  0  0  0  0  0  0  0  0  0  0  0  0  0  0  0  1
%% 2  0  2  1  0  0  0  0  0  0  0  1  0  0  1  1  0  1  0  0
%% 0  0  1  2  0  0  0  0  0  0  0  0  0  0  0  1  0  0  1  0
%% 0  0  0  0  0  0  0  0  0  0  0  1  0  0  1  0  0  1  1  0
%% 1  2  0  0  0  0  0  0  0  1  1  1  0  0  0  0  0  1  0  1
%% 0  1  2  0  0  0  0  0  0  2  0  2  0  0  0  1  0  1  2  1
%% 1  0  0  0  0  0  0  0  0  0  0  0  0  0  0  0  0  0  1  0
%% 0  0  0  1  0  0  0  0  0  0  0  1  0  0  0  0  0  0  1  1
%% 0  1  0  1  0  0  0  0  0  0  0  0  0  0  0  0  0  0  1  2
%% 0  0  0  0  0  0  0  0  0  0  0  0  0  0  0  0  0  0  0  0
%% 0  0  0  0  0  0  0  0  0  0  0  0  0  0  0  0  0  0  2  0

%%Initial points:
iPoints=[43, 46, 39, 42, 25, 24, 24, 27, 24, 35, 24, 38, 25, 23, 23, 37, 25, 36, 59, 45];

%%Initial positions:
%iPositions=[4, 2, 6, 5, 14, 18, 17, 11, 16, 10, 15, 7, 13, 20, 19, 8, 12, 9, 1, 3];

%%Position Constraints:
%numberPositionConstraints=2;

%%Total Fixtures:
%totalFixtures=38;

%%Fixtures to Play:
%fixturesToPlay=9;

%%Position Constraints Built With
%wantedPoints=[3, 1, 1, 1, 3, 1, 3, 3, 0, 0, 3, 3, 1, 1, 0, 1, 1, 1, 1, 0, 0, 1, 1, 0, 1, 3, 3, 3, 0, 3, 1, 0, 3, 1, 1, 3, 3, 3, 1, 1, 3, 0, 0, 1, 1, 3, 3, 3, 1, 3, 3, 1, 1, 3, 0, 3, 1, 3, 0, 3, 3, 1, 1, 1, 0, 1, 0, 3, 1, 0, 1, 1, 0, 0, 3, 0, 3, 3, 1, 0, 3, 1, 1, 3, 0, 0, 1, 3, 0, 3];

%POSITION CONSTRAINTS
%%[|teamID, operator, position|...]
%%operators index:
%%%1 for =  operator
%%%2 for >  operator
%%%3 for >= operator
%%%4 for <  operator
%%%5 for <= operator

positionConstraints=[|10,1,13|18,1,9|];

%SCORE VECTOR CONSTRAINTS
%%[|teamID, operator, wantedPoints|...]
%%operators index:
%%%1 for =  operator
%%%2 for >  operator
%%%3 for >= operator
%%%4 for <  operator
%%%5 for <= operator

%scoreVectorConstraints=[|10,1,39|18,1,43|];

%Instance Features:
%features=T,FP,TF,C,C/T,C/TF,FP/TF,FP/T,FP*C/T,FP*T/C,(C/T)*(FP/TF),Distance,Distance/C,Distance/T,Distance/(C*T)
%values=20,9,38,2,0.1,0.05263157894736842,0.2368421052631579,0.45,0.9,90.0,0.02368421052631579,3,1.5,0.15,0.075



gamesOfEveryTeam=[9,9,9,9,9,9,9,9,9,9,9,9,9,9,9,9,9,9,9,9];
weights=[|42,14,0,44|37,26,0,37|100,0,0,0|47,17,0,36|63,28,0,9|20,23,0,57|61,9,0,30|3,10,0,87|52,27,0,21|15,25,0,60|46,9,0,45|40,12,0,48|47,47,0,6|44,9,0,47|76,17,0,7|94,1,0,5|94,5,0,1|29,31,0,40|68,17,0,15|54,15,0,31|60,37,0,3|84,15,0,1|27,17,0,56|69,17,0,14|66,8,0,26|76,12,0,12|90,4,0,6|69,19,0,12|52,6,0,42|48,11,0,41|45,44,0,11|80,12,0,8|6,77,0,17|10,56,0,34|9,77,0,14|77,10,0,13|60,0,0,40|19,70,0,11|27,1,0,72|27,73,0,0|42,13,0,45|11,48,0,41|18,55,0,27|22,61,0,17|58,33,0,9|98,0,0,2|91,6,0,3|60,16,0,24|93,2,0,5|16,40,0,44|15,15,0,70|73,3,0,24|26,9,0,65|19,61,0,20|4,21,0,75|29,30,0,41|78,6,0,16|99,0,0,1|99,1,0,0|39,36,0,25|74,24,0,2|1,62,0,37|43,28,0,29|54,12,0,34|92,2,0,6|36,56,0,8|65,32,0,3|50,39,0,11|7,69,0,24|73,13,0,14|81,16,0,3|79,10,0,11|34,55,0,11|39,42,0,19|94,3,0,3|52,34,0,14|5,74,0,21|26,40,0,34|55,10,0,35|33,31,0,36|32,45,0,23|33,35,0,32|86,8,0,6|98,0,0,2|68,14,0,18|39,24,0,37|23,33,0,44|94,6,0,0|53,35,0,12|6,83,0,11|];